(set-logic ALL)
(declare-const self String)
(declare-const model String)
(declare-const naccess_binary String)
(declare-const tmp_directory String)
(assert (not (= tmp_directory "")))
(assert (not (< (str.len tmp_directory) 0)))
(assert (not (str.suffixof "/" tmp_directory)))
(assert (not (= (str.++ tmp_directory "/tmpacgkmmr9") "")))
(assert (not (< (str.len (str.++ tmp_directory "/tmpacgkmmr9")) 0)))
(assert (not (str.suffixof "/" (str.++ tmp_directory "/tmpacgkmmr9"))))
(assert (not (< (str.len (str.++ (str.++ tmp_directory "/tmpacgkmmr9") "/tmpjlexrznn.pdb")) 0)))
(assert (str.prefixof "/" (str.++ (str.++ tmp_directory "/tmpacgkmmr9") "/tmpjlexrznn.pdb")))
(assert (not (= (str.++ (str.++ tmp_directory "/tmpacgkmmr9") "/tmpjlexrznn.pdb") "")))
(assert (not (< (str.len (str.++ (str.++ tmp_directory "/tmpacgkmmr9") "/tmpjlexrznn.pdb")) 0)))
(assert (str.prefixof "/" (str.++ (str.++ tmp_directory "/tmpacgkmmr9") "/tmpjlexrznn.pdb")))
(assert (not (< (str.len (str.++ (str.++ tmp_directory "/tmpacgkmmr9") "/tmpjlexrznn.pdb")) 0)))
(assert (not (str.prefixof "//" (str.++ (str.++ tmp_directory "/tmpacgkmmr9") "/tmpjlexrznn.pdb"))))
(assert (not (< (str.len (str.++ (str.++ tmp_directory "/tmpacgkmmr9") "/tmpjlexrznn.pdb")) 0)))
(assert (not (= (+ 0 (str.indexof (str.++ (str.++ tmp_directory "/tmpacgkmmr9") "/tmpjlexrznn.pdb") "/" 0)) (- 1))))
(assert (not (< (+ 0 (str.indexof (str.++ (str.++ tmp_directory "/tmpacgkmmr9") "/tmpjlexrznn.pdb") "/" 0)) 0)))
(assert (not (< (+ (+ 0 (str.indexof (str.++ (str.++ tmp_directory "/tmpacgkmmr9") "/tmpjlexrznn.pdb") "/" 0)) 1) 0)))
(assert (not (< (str.len (str.++ (str.++ tmp_directory "/tmpacgkmmr9") "/tmpjlexrznn.pdb")) 0)))
(assert (not (< (str.len (str.substr (str.++ (str.++ tmp_directory "/tmpacgkmmr9") "/tmpjlexrznn.pdb") (+ (+ 0 (str.indexof (str.++ (str.++ tmp_directory "/tmpacgkmmr9") "/tmpjlexrznn.pdb") "/" 0)) 1) (- (str.len (str.++ (str.++ tmp_directory "/tmpacgkmmr9") "/tmpjlexrznn.pdb")) (+ (+ 0 (str.indexof (str.++ (str.++ tmp_directory "/tmpacgkmmr9") "/tmpjlexrznn.pdb") "/" 0)) 1)))) 0)))
(assert (not (= (+ 0 (str.indexof (str.substr (str.++ (str.++ tmp_directory "/tmpacgkmmr9") "/tmpjlexrznn.pdb") (+ (+ 0 (str.indexof (str.++ (str.++ tmp_directory "/tmpacgkmmr9") "/tmpjlexrznn.pdb") "/" 0)) 1) (- (str.len (str.++ (str.++ tmp_directory "/tmpacgkmmr9") "/tmpjlexrznn.pdb")) (+ (+ 0 (str.indexof (str.++ (str.++ tmp_directory "/tmpacgkmmr9") "/tmpjlexrznn.pdb") "/" 0)) 1))) "/" 0)) (- 1))))
(assert (not (< (+ 0 (str.indexof (str.substr (str.++ (str.++ tmp_directory "/tmpacgkmmr9") "/tmpjlexrznn.pdb") (+ (+ 0 (str.indexof (str.++ (str.++ tmp_directory "/tmpacgkmmr9") "/tmpjlexrznn.pdb") "/" 0)) 1) (- (str.len (str.++ (str.++ tmp_directory "/tmpacgkmmr9") "/tmpjlexrznn.pdb")) (+ (+ 0 (str.indexof (str.++ (str.++ tmp_directory "/tmpacgkmmr9") "/tmpjlexrznn.pdb") "/" 0)) 1))) "/" 0)) 0)))
(assert (not (< (+ (+ 0 (str.indexof (str.substr (str.++ (str.++ tmp_directory "/tmpacgkmmr9") "/tmpjlexrznn.pdb") (+ (+ 0 (str.indexof (str.++ (str.++ tmp_directory "/tmpacgkmmr9") "/tmpjlexrznn.pdb") "/" 0)) 1) (- (str.len (str.++ (str.++ tmp_directory "/tmpacgkmmr9") "/tmpjlexrznn.pdb")) (+ (+ 0 (str.indexof (str.++ (str.++ tmp_directory "/tmpacgkmmr9") "/tmpjlexrznn.pdb") "/" 0)) 1))) "/" 0)) 1) 0)))
(assert (not (< (str.len (str.substr (str.++ (str.++ tmp_directory "/tmpacgkmmr9") "/tmpjlexrznn.pdb") (+ (+ 0 (str.indexof (str.++ (str.++ tmp_directory "/tmpacgkmmr9") "/tmpjlexrznn.pdb") "/" 0)) 1) (- (str.len (str.++ (str.++ tmp_directory "/tmpacgkmmr9") "/tmpjlexrznn.pdb")) (+ (+ 0 (str.indexof (str.++ (str.++ tmp_directory "/tmpacgkmmr9") "/tmpjlexrznn.pdb") "/" 0)) 1)))) 0)))
(assert (not (< (str.len (str.substr (str.substr (str.++ (str.++ tmp_directory "/tmpacgkmmr9") "/tmpjlexrznn.pdb") (+ (+ 0 (str.indexof (str.++ (str.++ tmp_directory "/tmpacgkmmr9") "/tmpjlexrznn.pdb") "/" 0)) 1) (- (str.len (str.++ (str.++ tmp_directory "/tmpacgkmmr9") "/tmpjlexrznn.pdb")) (+ (+ 0 (str.indexof (str.++ (str.++ tmp_directory "/tmpacgkmmr9") "/tmpjlexrznn.pdb") "/" 0)) 1))) (+ (+ 0 (str.indexof (str.substr (str.++ (str.++ tmp_directory "/tmpacgkmmr9") "/tmpjlexrznn.pdb") (+ (+ 0 (str.indexof (str.++ (str.++ tmp_directory "/tmpacgkmmr9") "/tmpjlexrznn.pdb") "/" 0)) 1) (- (str.len (str.++ (str.++ tmp_directory "/tmpacgkmmr9") "/tmpjlexrznn.pdb")) (+ (+ 0 (str.indexof (str.++ (str.++ tmp_directory "/tmpacgkmmr9") "/tmpjlexrznn.pdb") "/" 0)) 1))) "/" 0)) 1) (- (str.len (str.substr (str.++ (str.++ tmp_directory "/tmpacgkmmr9") "/tmpjlexrznn.pdb") (+ (+ 0 (str.indexof (str.++ (str.++ tmp_directory "/tmpacgkmmr9") "/tmpjlexrznn.pdb") "/" 0)) 1) (- (str.len (str.++ (str.++ tmp_directory "/tmpacgkmmr9") "/tmpjlexrznn.pdb")) (+ (+ 0 (str.indexof (str.++ (str.++ tmp_directory "/tmpacgkmmr9") "/tmpjlexrznn.pdb") "/" 0)) 1)))) (+ (+ 0 (str.indexof (str.substr (str.++ (str.++ tmp_directory "/tmpacgkmmr9") "/tmpjlexrznn.pdb") (+ (+ 0 (str.indexof (str.++ (str.++ tmp_directory "/tmpacgkmmr9") "/tmpjlexrznn.pdb") "/" 0)) 1) (- (str.len (str.++ (str.++ tmp_directory "/tmpacgkmmr9") "/tmpjlexrznn.pdb")) (+ (+ 0 (str.indexof (str.++ (str.++ tmp_directory "/tmpacgkmmr9") "/tmpjlexrznn.pdb") "/" 0)) 1))) "/" 0)) 1)))) 0)))
(assert (not (= (+ 0 (str.indexof (str.substr (str.substr (str.++ (str.++ tmp_directory "/tmpacgkmmr9") "/tmpjlexrznn.pdb") (+ (+ 0 (str.indexof (str.++ (str.++ tmp_directory "/tmpacgkmmr9") "/tmpjlexrznn.pdb") "/" 0)) 1) (- (str.len (str.++ (str.++ tmp_directory "/tmpacgkmmr9") "/tmpjlexrznn.pdb")) (+ (+ 0 (str.indexof (str.++ (str.++ tmp_directory "/tmpacgkmmr9") "/tmpjlexrznn.pdb") "/" 0)) 1))) (+ (+ 0 (str.indexof (str.substr (str.++ (str.++ tmp_directory "/tmpacgkmmr9") "/tmpjlexrznn.pdb") (+ (+ 0 (str.indexof (str.++ (str.++ tmp_directory "/tmpacgkmmr9") "/tmpjlexrznn.pdb") "/" 0)) 1) (- (str.len (str.++ (str.++ tmp_directory "/tmpacgkmmr9") "/tmpjlexrznn.pdb")) (+ (+ 0 (str.indexof (str.++ (str.++ tmp_directory "/tmpacgkmmr9") "/tmpjlexrznn.pdb") "/" 0)) 1))) "/" 0)) 1) (- (str.len (str.substr (str.++ (str.++ tmp_directory "/tmpacgkmmr9") "/tmpjlexrznn.pdb") (+ (+ 0 (str.indexof (str.++ (str.++ tmp_directory "/tmpacgkmmr9") "/tmpjlexrznn.pdb") "/" 0)) 1) (- (str.len (str.++ (str.++ tmp_directory "/tmpacgkmmr9") "/tmpjlexrznn.pdb")) (+ (+ 0 (str.indexof (str.++ (str.++ tmp_directory "/tmpacgkmmr9") "/tmpjlexrznn.pdb") "/" 0)) 1)))) (+ (+ 0 (str.indexof (str.substr (str.++ (str.++ tmp_directory "/tmpacgkmmr9") "/tmpjlexrznn.pdb") (+ (+ 0 (str.indexof (str.++ (str.++ tmp_directory "/tmpacgkmmr9") "/tmpjlexrznn.pdb") "/" 0)) 1) (- (str.len (str.++ (str.++ tmp_directory "/tmpacgkmmr9") "/tmpjlexrznn.pdb")) (+ (+ 0 (str.indexof (str.++ (str.++ tmp_directory "/tmpacgkmmr9") "/tmpjlexrznn.pdb") "/" 0)) 1))) "/" 0)) 1))) "/" 0)) (- 1))))
(assert (not (< (+ 0 (str.indexof (str.substr (str.substr (str.++ (str.++ tmp_directory "/tmpacgkmmr9") "/tmpjlexrznn.pdb") (+ (+ 0 (str.indexof (str.++ (str.++ tmp_directory "/tmpacgkmmr9") "/tmpjlexrznn.pdb") "/" 0)) 1) (- (str.len (str.++ (str.++ tmp_directory "/tmpacgkmmr9") "/tmpjlexrznn.pdb")) (+ (+ 0 (str.indexof (str.++ (str.++ tmp_directory "/tmpacgkmmr9") "/tmpjlexrznn.pdb") "/" 0)) 1))) (+ (+ 0 (str.indexof (str.substr (str.++ (str.++ tmp_directory "/tmpacgkmmr9") "/tmpjlexrznn.pdb") (+ (+ 0 (str.indexof (str.++ (str.++ tmp_directory "/tmpacgkmmr9") "/tmpjlexrznn.pdb") "/" 0)) 1) (- (str.len (str.++ (str.++ tmp_directory "/tmpacgkmmr9") "/tmpjlexrznn.pdb")) (+ (+ 0 (str.indexof (str.++ (str.++ tmp_directory "/tmpacgkmmr9") "/tmpjlexrznn.pdb") "/" 0)) 1))) "/" 0)) 1) (- (str.len (str.substr (str.++ (str.++ tmp_directory "/tmpacgkmmr9") "/tmpjlexrznn.pdb") (+ (+ 0 (str.indexof (str.++ (str.++ tmp_directory "/tmpacgkmmr9") "/tmpjlexrznn.pdb") "/" 0)) 1) (- (str.len (str.++ (str.++ tmp_directory "/tmpacgkmmr9") "/tmpjlexrznn.pdb")) (+ (+ 0 (str.indexof (str.++ (str.++ tmp_directory "/tmpacgkmmr9") "/tmpjlexrznn.pdb") "/" 0)) 1)))) (+ (+ 0 (str.indexof (str.substr (str.++ (str.++ tmp_directory "/tmpacgkmmr9") "/tmpjlexrznn.pdb") (+ (+ 0 (str.indexof (str.++ (str.++ tmp_directory "/tmpacgkmmr9") "/tmpjlexrznn.pdb") "/" 0)) 1) (- (str.len (str.++ (str.++ tmp_directory "/tmpacgkmmr9") "/tmpjlexrznn.pdb")) (+ (+ 0 (str.indexof (str.++ (str.++ tmp_directory "/tmpacgkmmr9") "/tmpjlexrznn.pdb") "/" 0)) 1))) "/" 0)) 1))) "/" 0)) 0)))
(assert (not (< (+ (+ 0 (str.indexof (str.substr (str.substr (str.++ (str.++ tmp_directory "/tmpacgkmmr9") "/tmpjlexrznn.pdb") (+ (+ 0 (str.indexof (str.++ (str.++ tmp_directory "/tmpacgkmmr9") "/tmpjlexrznn.pdb") "/" 0)) 1) (- (str.len (str.++ (str.++ tmp_directory "/tmpacgkmmr9") "/tmpjlexrznn.pdb")) (+ (+ 0 (str.indexof (str.++ (str.++ tmp_directory "/tmpacgkmmr9") "/tmpjlexrznn.pdb") "/" 0)) 1))) (+ (+ 0 (str.indexof (str.substr (str.++ (str.++ tmp_directory "/tmpacgkmmr9") "/tmpjlexrznn.pdb") (+ (+ 0 (str.indexof (str.++ (str.++ tmp_directory "/tmpacgkmmr9") "/tmpjlexrznn.pdb") "/" 0)) 1) (- (str.len (str.++ (str.++ tmp_directory "/tmpacgkmmr9") "/tmpjlexrznn.pdb")) (+ (+ 0 (str.indexof (str.++ (str.++ tmp_directory "/tmpacgkmmr9") "/tmpjlexrznn.pdb") "/" 0)) 1))) "/" 0)) 1) (- (str.len (str.substr (str.++ (str.++ tmp_directory "/tmpacgkmmr9") "/tmpjlexrznn.pdb") (+ (+ 0 (str.indexof (str.++ (str.++ tmp_directory "/tmpacgkmmr9") "/tmpjlexrznn.pdb") "/" 0)) 1) (- (str.len (str.++ (str.++ tmp_directory "/tmpacgkmmr9") "/tmpjlexrznn.pdb")) (+ (+ 0 (str.indexof (str.++ (str.++ tmp_directory "/tmpacgkmmr9") "/tmpjlexrznn.pdb") "/" 0)) 1)))) (+ (+ 0 (str.indexof (str.substr (str.++ (str.++ tmp_directory "/tmpacgkmmr9") "/tmpjlexrznn.pdb") (+ (+ 0 (str.indexof (str.++ (str.++ tmp_directory "/tmpacgkmmr9") "/tmpjlexrznn.pdb") "/" 0)) 1) (- (str.len (str.++ (str.++ tmp_directory "/tmpacgkmmr9") "/tmpjlexrznn.pdb")) (+ (+ 0 (str.indexof (str.++ (str.++ tmp_directory "/tmpacgkmmr9") "/tmpjlexrznn.pdb") "/" 0)) 1))) "/" 0)) 1))) "/" 0)) 1) 0)))
(assert (not (< (str.len (str.substr (str.substr (str.++ (str.++ tmp_directory "/tmpacgkmmr9") "/tmpjlexrznn.pdb") (+ (+ 0 (str.indexof (str.++ (str.++ tmp_directory "/tmpacgkmmr9") "/tmpjlexrznn.pdb") "/" 0)) 1) (- (str.len (str.++ (str.++ tmp_directory "/tmpacgkmmr9") "/tmpjlexrznn.pdb")) (+ (+ 0 (str.indexof (str.++ (str.++ tmp_directory "/tmpacgkmmr9") "/tmpjlexrznn.pdb") "/" 0)) 1))) (+ (+ 0 (str.indexof (str.substr (str.++ (str.++ tmp_directory "/tmpacgkmmr9") "/tmpjlexrznn.pdb") (+ (+ 0 (str.indexof (str.++ (str.++ tmp_directory "/tmpacgkmmr9") "/tmpjlexrznn.pdb") "/" 0)) 1) (- (str.len (str.++ (str.++ tmp_directory "/tmpacgkmmr9") "/tmpjlexrznn.pdb")) (+ (+ 0 (str.indexof (str.++ (str.++ tmp_directory "/tmpacgkmmr9") "/tmpjlexrznn.pdb") "/" 0)) 1))) "/" 0)) 1) (- (str.len (str.substr (str.++ (str.++ tmp_directory "/tmpacgkmmr9") "/tmpjlexrznn.pdb") (+ (+ 0 (str.indexof (str.++ (str.++ tmp_directory "/tmpacgkmmr9") "/tmpjlexrznn.pdb") "/" 0)) 1) (- (str.len (str.++ (str.++ tmp_directory "/tmpacgkmmr9") "/tmpjlexrznn.pdb")) (+ (+ 0 (str.indexof (str.++ (str.++ tmp_directory "/tmpacgkmmr9") "/tmpjlexrznn.pdb") "/" 0)) 1)))) (+ (+ 0 (str.indexof (str.substr (str.++ (str.++ tmp_directory "/tmpacgkmmr9") "/tmpjlexrznn.pdb") (+ (+ 0 (str.indexof (str.++ (str.++ tmp_directory "/tmpacgkmmr9") "/tmpjlexrznn.pdb") "/" 0)) 1) (- (str.len (str.++ (str.++ tmp_directory "/tmpacgkmmr9") "/tmpjlexrznn.pdb")) (+ (+ 0 (str.indexof (str.++ (str.++ tmp_directory "/tmpacgkmmr9") "/tmpjlexrznn.pdb") "/" 0)) 1))) "/" 0)) 1)))) 0)))
(assert (< (str.len (str.substr (str.substr (str.substr (str.++ (str.++ tmp_directory "/tmpacgkmmr9") "/tmpjlexrznn.pdb") (+ (+ 0 (str.indexof (str.++ (str.++ tmp_directory "/tmpacgkmmr9") "/tmpjlexrznn.pdb") "/" 0)) 1) (- (str.len (str.++ (str.++ tmp_directory "/tmpacgkmmr9") "/tmpjlexrznn.pdb")) (+ (+ 0 (str.indexof (str.++ (str.++ tmp_directory "/tmpacgkmmr9") "/tmpjlexrznn.pdb") "/" 0)) 1))) (+ (+ 0 (str.indexof (str.substr (str.++ (str.++ tmp_directory "/tmpacgkmmr9") "/tmpjlexrznn.pdb") (+ (+ 0 (str.indexof (str.++ (str.++ tmp_directory "/tmpacgkmmr9") "/tmpjlexrznn.pdb") "/" 0)) 1) (- (str.len (str.++ (str.++ tmp_directory "/tmpacgkmmr9") "/tmpjlexrznn.pdb")) (+ (+ 0 (str.indexof (str.++ (str.++ tmp_directory "/tmpacgkmmr9") "/tmpjlexrznn.pdb") "/" 0)) 1))) "/" 0)) 1) (- (str.len (str.substr (str.++ (str.++ tmp_directory "/tmpacgkmmr9") "/tmpjlexrznn.pdb") (+ (+ 0 (str.indexof (str.++ (str.++ tmp_directory "/tmpacgkmmr9") "/tmpjlexrznn.pdb") "/" 0)) 1) (- (str.len (str.++ (str.++ tmp_directory "/tmpacgkmmr9") "/tmpjlexrznn.pdb")) (+ (+ 0 (str.indexof (str.++ (str.++ tmp_directory "/tmpacgkmmr9") "/tmpjlexrznn.pdb") "/" 0)) 1)))) (+ (+ 0 (str.indexof (str.substr (str.++ (str.++ tmp_directory "/tmpacgkmmr9") "/tmpjlexrznn.pdb") (+ (+ 0 (str.indexof (str.++ (str.++ tmp_directory "/tmpacgkmmr9") "/tmpjlexrznn.pdb") "/" 0)) 1) (- (str.len (str.++ (str.++ tmp_directory "/tmpacgkmmr9") "/tmpjlexrznn.pdb")) (+ (+ 0 (str.indexof (str.++ (str.++ tmp_directory "/tmpacgkmmr9") "/tmpjlexrznn.pdb") "/" 0)) 1))) "/" 0)) 1))) (+ (+ 0 (str.indexof (str.substr (str.substr (str.++ (str.++ tmp_directory "/tmpacgkmmr9") "/tmpjlexrznn.pdb") (+ (+ 0 (str.indexof (str.++ (str.++ tmp_directory "/tmpacgkmmr9") "/tmpjlexrznn.pdb") "/" 0)) 1) (- (str.len (str.++ (str.++ tmp_directory "/tmpacgkmmr9") "/tmpjlexrznn.pdb")) (+ (+ 0 (str.indexof (str.++ (str.++ tmp_directory "/tmpacgkmmr9") "/tmpjlexrznn.pdb") "/" 0)) 1))) (+ (+ 0 (str.indexof (str.substr (str.++ (str.++ tmp_directory "/tmpacgkmmr9") "/tmpjlexrznn.pdb") (+ (+ 0 (str.indexof (str.++ (str.++ tmp_directory "/tmpacgkmmr9") "/tmpjlexrznn.pdb") "/" 0)) 1) (- (str.len (str.++ (str.++ tmp_directory "/tmpacgkmmr9") "/tmpjlexrznn.pdb")) (+ (+ 0 (str.indexof (str.++ (str.++ tmp_directory "/tmpacgkmmr9") "/tmpjlexrznn.pdb") "/" 0)) 1))) "/" 0)) 1) (- (str.len (str.substr (str.++ (str.++ tmp_directory "/tmpacgkmmr9") "/tmpjlexrznn.pdb") (+ (+ 0 (str.indexof (str.++ (str.++ tmp_directory "/tmpacgkmmr9") "/tmpjlexrznn.pdb") "/" 0)) 1) (- (str.len (str.++ (str.++ tmp_directory "/tmpacgkmmr9") "/tmpjlexrznn.pdb")) (+ (+ 0 (str.indexof (str.++ (str.++ tmp_directory "/tmpacgkmmr9") "/tmpjlexrznn.pdb") "/" 0)) 1)))) (+ (+ 0 (str.indexof (str.substr (str.++ (str.++ tmp_directory "/tmpacgkmmr9") "/tmpjlexrznn.pdb") (+ (+ 0 (str.indexof (str.++ (str.++ tmp_directory "/tmpacgkmmr9") "/tmpjlexrznn.pdb") "/" 0)) 1) (- (str.len (str.++ (str.++ tmp_directory "/tmpacgkmmr9") "/tmpjlexrznn.pdb")) (+ (+ 0 (str.indexof (str.++ (str.++ tmp_directory "/tmpacgkmmr9") "/tmpjlexrznn.pdb") "/" 0)) 1))) "/" 0)) 1))) "/" 0)) 1) (- (str.len (str.substr (str.substr (str.++ (str.++ tmp_directory "/tmpacgkmmr9") "/tmpjlexrznn.pdb") (+ (+ 0 (str.indexof (str.++ (str.++ tmp_directory "/tmpacgkmmr9") "/tmpjlexrznn.pdb") "/" 0)) 1) (- (str.len (str.++ (str.++ tmp_directory "/tmpacgkmmr9") "/tmpjlexrznn.pdb")) (+ (+ 0 (str.indexof (str.++ (str.++ tmp_directory "/tmpacgkmmr9") "/tmpjlexrznn.pdb") "/" 0)) 1))) (+ (+ 0 (str.indexof (str.substr (str.++ (str.++ tmp_directory "/tmpacgkmmr9") "/tmpjlexrznn.pdb") (+ (+ 0 (str.indexof (str.++ (str.++ tmp_directory "/tmpacgkmmr9") "/tmpjlexrznn.pdb") "/" 0)) 1) (- (str.len (str.++ (str.++ tmp_directory "/tmpacgkmmr9") "/tmpjlexrznn.pdb")) (+ (+ 0 (str.indexof (str.++ (str.++ tmp_directory "/tmpacgkmmr9") "/tmpjlexrznn.pdb") "/" 0)) 1))) "/" 0)) 1) (- (str.len (str.substr (str.++ (str.++ tmp_directory "/tmpacgkmmr9") "/tmpjlexrznn.pdb") (+ (+ 0 (str.indexof (str.++ (str.++ tmp_directory "/tmpacgkmmr9") "/tmpjlexrznn.pdb") "/" 0)) 1) (- (str.len (str.++ (str.++ tmp_directory "/tmpacgkmmr9") "/tmpjlexrznn.pdb")) (+ (+ 0 (str.indexof (str.++ (str.++ tmp_directory "/tmpacgkmmr9") "/tmpjlexrznn.pdb") "/" 0)) 1)))) (+ (+ 0 (str.indexof (str.substr (str.++ (str.++ tmp_directory "/tmpacgkmmr9") "/tmpjlexrznn.pdb") (+ (+ 0 (str.indexof (str.++ (str.++ tmp_directory "/tmpacgkmmr9") "/tmpjlexrznn.pdb") "/" 0)) 1) (- (str.len (str.++ (str.++ tmp_directory "/tmpacgkmmr9") "/tmpjlexrznn.pdb")) (+ (+ 0 (str.indexof (str.++ (str.++ tmp_directory "/tmpacgkmmr9") "/tmpjlexrznn.pdb") "/" 0)) 1))) "/" 0)) 1)))) (+ (+ 0 (str.indexof (str.substr (str.substr (str.++ (str.++ tmp_directory "/tmpacgkmmr9") "/tmpjlexrznn.pdb") (+ (+ 0 (str.indexof (str.++ (str.++ tmp_directory "/tmpacgkmmr9") "/tmpjlexrznn.pdb") "/" 0)) 1) (- (str.len (str.++ (str.++ tmp_directory "/tmpacgkmmr9") "/tmpjlexrznn.pdb")) (+ (+ 0 (str.indexof (str.++ (str.++ tmp_directory "/tmpacgkmmr9") "/tmpjlexrznn.pdb") "/" 0)) 1))) (+ (+ 0 (str.indexof (str.substr (str.++ (str.++ tmp_directory "/tmpacgkmmr9") "/tmpjlexrznn.pdb") (+ (+ 0 (str.indexof (str.++ (str.++ tmp_directory "/tmpacgkmmr9") "/tmpjlexrznn.pdb") "/" 0)) 1) (- (str.len (str.++ (str.++ tmp_directory "/tmpacgkmmr9") "/tmpjlexrznn.pdb")) (+ (+ 0 (str.indexof (str.++ (str.++ tmp_directory "/tmpacgkmmr9") "/tmpjlexrznn.pdb") "/" 0)) 1))) "/" 0)) 1) (- (str.len (str.substr (str.++ (str.++ tmp_directory "/tmpacgkmmr9") "/tmpjlexrznn.pdb") (+ (+ 0 (str.indexof (str.++ (str.++ tmp_directory "/tmpacgkmmr9") "/tmpjlexrznn.pdb") "/" 0)) 1) (- (str.len (str.++ (str.++ tmp_directory "/tmpacgkmmr9") "/tmpjlexrznn.pdb")) (+ (+ 0 (str.indexof (str.++ (str.++ tmp_directory "/tmpacgkmmr9") "/tmpjlexrznn.pdb") "/" 0)) 1)))) (+ (+ 0 (str.indexof (str.substr (str.++ (str.++ tmp_directory "/tmpacgkmmr9") "/tmpjlexrznn.pdb") (+ (+ 0 (str.indexof (str.++ (str.++ tmp_directory "/tmpacgkmmr9") "/tmpjlexrznn.pdb") "/" 0)) 1) (- (str.len (str.++ (str.++ tmp_directory "/tmpacgkmmr9") "/tmpjlexrznn.pdb")) (+ (+ 0 (str.indexof (str.++ (str.++ tmp_directory "/tmpacgkmmr9") "/tmpjlexrznn.pdb") "/" 0)) 1))) "/" 0)) 1))) "/" 0)) 1)))) 0))
(check-sat)
(get-value (self))
(get-value (model))
(get-value (naccess_binary))
(get-value (tmp_directory))
